75 75
16 29
31 23
34 2
11 9
7 69
1 44
19 13
18 67
25 50
10 5
15 49
24 45
1 7
30 48
36 24
36 74
21 73
9 11
22 6
3 59
23 75
14 4
3 60
5 35
2 8
32 71
37 52
12 3
33 40
17 38
34 62
33 21
26 63
20 28
31 19
2 36
20 17
23 33
21 31
14 25
16 51
8 30
26 18
13 41
6 46
24 16
29 61
35 22
27 56
29 72
32 27
35 47
7 14
10 32
19 58
28 43
11 65
5 15
30 42
22 26
4 55
1 12
13 37
9 34
12 66
25 54
27 20
18 39
4 68
8 70
15 64
37 10
17 1
6 53
28 57
